NAME: br17
TYPE: ATSP
COMMENT: 10 city problem (Repetto)
DIMENSION: 10
EDGE_WEIGHT_TYPE: EXPLICIT
EDGE_WEIGHT_FORMAT: FULL_MATRIX 
EDGE_WEIGHT_SECTION
 0 1 2 2 2 2 2 2 2 2
 2 0 1 2 2 2 2 2 2 2
 2 2 0 1 2 2 2 2 2 2
 2 2 2 0 1 2 2 2 2 2
 2 2 2 2 0 1 2 2 2 2
 2 2 2 2 2 0 1 2 2 2
 2 2 2 2 2 2 0 1 2 2
 2 2 2 2 2 2 2 0 1 2
 2 2 2 2 2 2 2 2 0 1
 1 2 2 2 2 2 2 2 2 0
EOF
